c description: Graph pigeonhole principle formula on fast_gnp_random_graph(20,10,0.5)
c generator: CNFgen (0.9.0)
c copyright: (C) 2012-2020 Massimo Lauria <massimo.lauria@uniroma1.it>
c url: https://massimolauria.net/cnfgen
c
p cnf 97 474
1 2 3 0
4 5 6 7 8 9 10 0
11 12 13 14 15 16 17 18 0
19 20 21 22 23 24 0
25 26 27 0
28 29 30 31 32 33 34 0
35 36 37 38 39 0
40 41 42 43 44 45 0
46 47 0
48 49 50 51 52 53 0
54 55 56 57 58 0
59 60 61 0
62 63 64 65 0
66 67 68 69 70 71 0
72 73 74 75 76 77 0
78 79 80 81 82 0
83 84 85 0
86 87 88 89 90 0
91 92 93 94 0
95 96 97 0
-4 -11 0
-4 -19 0
-4 -28 0
-4 -35 0
-4 -66 0
-4 -78 0
-4 -83 0
-4 -86 0
-11 -19 0
-11 -28 0
-11 -35 0
-11 -66 0
-11 -78 0
-11 -83 0
-11 -86 0
-19 -28 0
-19 -35 0
-19 -66 0
-19 -78 0
-19 -83 0
-19 -86 0
-28 -35 0
-28 -66 0
-28 -78 0
-28 -83 0
-28 -86 0
-35 -66 0
-35 -78 0
-35 -83 0
-35 -86 0
-66 -78 0
-66 -83 0
-66 -86 0
-78 -83 0
-78 -86 0
-83 -86 0
-12 -25 0
-12 -36 0
-12 -40 0
-12 -67 0
-25 -36 0
-25 -40 0
-25 -67 0
-36 -40 0
-36 -67 0
-40 -67 0
-1 -5 0
-1 -13 0
-1 -20 0
-1 -29 0
-1 -41 0
-1 -54 0
-1 -91 0
-5 -13 0
-5 -20 0
-5 -29 0
-5 -41 0
-5 -54 0
-5 -91 0
-13 -20 0
-13 -29 0
-13 -41 0
-13 -54 0
-13 -91 0
-20 -29 0
-20 -41 0
-20 -54 0
-20 -91 0
-29 -41 0
-29 -54 0
-29 -91 0
-41 -54 0
-41 -91 0
-54 -91 0
-14 -21 0
-14 -30 0
-14 -37 0
-14 -42 0
-14 -48 0
-14 -62 0
-14 -68 0
-14 -72 0
-14 -95 0
-21 -30 0
-21 -37 0
-21 -42 0
-21 -48 0
-21 -62 0
-21 -68 0
-21 -72 0
-21 -95 0
-30 -37 0
-30 -42 0
-30 -48 0
-30 -62 0
-30 -68 0
-30 -72 0
-30 -95 0
-37 -42 0
-37 -48 0
-37 -62 0
-37 -68 0
-37 -72 0
-37 -95 0
-42 -48 0
-42 -62 0
-42 -68 0
-42 -72 0
-42 -95 0
-48 -62 0
-48 -68 0
-48 -72 0
-48 -95 0
-62 -68 0
-62 -72 0
-62 -95 0
-68 -72 0
-68 -95 0
-72 -95 0
-2 -6 0
-2 -22 0
-2 -31 0
-2 -43 0
-2 -49 0
-2 -55 0
-2 -59 0
-2 -63 0
-2 -73 0
-2 -79 0
-2 -84 0
-2 -87 0
-2 -92 0
-6 -22 0
-6 -31 0
-6 -43 0
-6 -49 0
-6 -55 0
-6 -59 0
-6 -63 0
-6 -73 0
-6 -79 0
-6 -84 0
-6 -87 0
-6 -92 0
-22 -31 0
-22 -43 0
-22 -49 0
-22 -55 0
-22 -59 0
-22 -63 0
-22 -73 0
-22 -79 0
-22 -84 0
-22 -87 0
-22 -92 0
-31 -43 0
-31 -49 0
-31 -55 0
-31 -59 0
-31 -63 0
-31 -73 0
-31 -79 0
-31 -84 0
-31 -87 0
-31 -92 0
-43 -49 0
-43 -55 0
-43 -59 0
-43 -63 0
-43 -73 0
-43 -79 0
-43 -84 0
-43 -87 0
-43 -92 0
-49 -55 0
-49 -59 0
-49 -63 0
-49 -73 0
-49 -79 0
-49 -84 0
-49 -87 0
-49 -92 0
-55 -59 0
-55 -63 0
-55 -73 0
-55 -79 0
-55 -84 0
-55 -87 0
-55 -92 0
-59 -63 0
-59 -73 0
-59 -79 0
-59 -84 0
-59 -87 0
-59 -92 0
-63 -73 0
-63 -79 0
-63 -84 0
-63 -87 0
-63 -92 0
-73 -79 0
-73 -84 0
-73 -87 0
-73 -92 0
-79 -84 0
-79 -87 0
-79 -92 0
-84 -87 0
-84 -92 0
-87 -92 0
-7 -15 0
-7 -23 0
-7 -32 0
-7 -44 0
-7 -46 0
-7 -50 0
-7 -56 0
-7 -74 0
-7 -80 0
-7 -85 0
-7 -93 0
-7 -96 0
-15 -23 0
-15 -32 0
-15 -44 0
-15 -46 0
-15 -50 0
-15 -56 0
-15 -74 0
-15 -80 0
-15 -85 0
-15 -93 0
-15 -96 0
-23 -32 0
-23 -44 0
-23 -46 0
-23 -50 0
-23 -56 0
-23 -74 0
-23 -80 0
-23 -85 0
-23 -93 0
-23 -96 0
-32 -44 0
-32 -46 0
-32 -50 0
-32 -56 0
-32 -74 0
-32 -80 0
-32 -85 0
-32 -93 0
-32 -96 0
-44 -46 0
-44 -50 0
-44 -56 0
-44 -74 0
-44 -80 0
-44 -85 0
-44 -93 0
-44 -96 0
-46 -50 0
-46 -56 0
-46 -74 0
-46 -80 0
-46 -85 0
-46 -93 0
-46 -96 0
-50 -56 0
-50 -74 0
-50 -80 0
-50 -85 0
-50 -93 0
-50 -96 0
-56 -74 0
-56 -80 0
-56 -85 0
-56 -93 0
-56 -96 0
-74 -80 0
-74 -85 0
-74 -93 0
-74 -96 0
-80 -85 0
-80 -93 0
-80 -96 0
-85 -93 0
-85 -96 0
-93 -96 0
-3 -8 0
-3 -16 0
-3 -38 0
-3 -57 0
-3 -60 0
-3 -69 0
-3 -75 0
-3 -88 0
-8 -16 0
-8 -38 0
-8 -57 0
-8 -60 0
-8 -69 0
-8 -75 0
-8 -88 0
-16 -38 0
-16 -57 0
-16 -60 0
-16 -69 0
-16 -75 0
-16 -88 0
-38 -57 0
-38 -60 0
-38 -69 0
-38 -75 0
-38 -88 0
-57 -60 0
-57 -69 0
-57 -75 0
-57 -88 0
-60 -69 0
-60 -75 0
-60 -88 0
-69 -75 0
-69 -88 0
-75 -88 0
-17 -26 0
-17 -39 0
-17 -47 0
-17 -51 0
-17 -64 0
-17 -70 0
-17 -76 0
-17 -97 0
-26 -39 0
-26 -47 0
-26 -51 0
-26 -64 0
-26 -70 0
-26 -76 0
-26 -97 0
-39 -47 0
-39 -51 0
-39 -64 0
-39 -70 0
-39 -76 0
-39 -97 0
-47 -51 0
-47 -64 0
-47 -70 0
-47 -76 0
-47 -97 0
-51 -64 0
-51 -70 0
-51 -76 0
-51 -97 0
-64 -70 0
-64 -76 0
-64 -97 0
-70 -76 0
-70 -97 0
-76 -97 0
-9 -33 0
-9 -52 0
-9 -58 0
-9 -77 0
-9 -81 0
-9 -89 0
-9 -94 0
-33 -52 0
-33 -58 0
-33 -77 0
-33 -81 0
-33 -89 0
-33 -94 0
-52 -58 0
-52 -77 0
-52 -81 0
-52 -89 0
-52 -94 0
-58 -77 0
-58 -81 0
-58 -89 0
-58 -94 0
-77 -81 0
-77 -89 0
-77 -94 0
-81 -89 0
-81 -94 0
-89 -94 0
-10 -18 0
-10 -24 0
-10 -27 0
-10 -34 0
-10 -45 0
-10 -53 0
-10 -61 0
-10 -65 0
-10 -71 0
-10 -82 0
-10 -90 0
-18 -24 0
-18 -27 0
-18 -34 0
-18 -45 0
-18 -53 0
-18 -61 0
-18 -65 0
-18 -71 0
-18 -82 0
-18 -90 0
-24 -27 0
-24 -34 0
-24 -45 0
-24 -53 0
-24 -61 0
-24 -65 0
-24 -71 0
-24 -82 0
-24 -90 0
-27 -34 0
-27 -45 0
-27 -53 0
-27 -61 0
-27 -65 0
-27 -71 0
-27 -82 0
-27 -90 0
-34 -45 0
-34 -53 0
-34 -61 0
-34 -65 0
-34 -71 0
-34 -82 0
-34 -90 0
-45 -53 0
-45 -61 0
-45 -65 0
-45 -71 0
-45 -82 0
-45 -90 0
-53 -61 0
-53 -65 0
-53 -71 0
-53 -82 0
-53 -90 0
-61 -65 0
-61 -71 0
-61 -82 0
-61 -90 0
-65 -71 0
-65 -82 0
-65 -90 0
-71 -82 0
-71 -90 0
-82 -90 0